p cnf 13 20
13 -12 -2 0
13 -10 8 0
-13 -10 7 0
-13 -10 -6 0
13 8 -5 0
-13 7 5 0
12 11 10 0
-12 -11 7 0
-12 10 -4 0
-11 -9 2 0
-11 -8 -1 0
11 -7 5 0
-11 -2 -1 0
-10 -8 -6 0
-9 6 4 0
9 6 -1 0
8 7 6 0
8 7 4 0
-7 6 3 0
5 3 -1 0
